\ Model Staff Scheduling Problem with Break Time Constraints
\ LP format - for model browsing. Use MPS format to capture full model detail.
Minimize
  84.93955442146445 x[0,0] + 59.66324442693575 x[0,1]
   + 27.96325526838227 x[0,2] + 68.69818387044118 x[0,3]
   + 50.05999235505814 x[0,4] + 88.44668304261546 x[0,5]
   + 49.80202590156388 x[0,6] + 22.00222764102819 x[0,7]
   + 42.90899556799159 x[1,0] + 59.6513356340489 x[1,1]
   + 21.82431490465379 x[1,2] + 12.32944734232847 x[1,3]
   + 49.99299171022551 x[1,4] + 16.39450136458562 x[1,5]
   + 47.7997441868765 x[1,6] + 57.59309194028183 x[1,7]
   + 42.4003125212823 x[2,0] + 63.31314273860827 x[2,1]
   + 12.43479141898908 x[2,2] + 57.70773296582551 x[2,3]
   + 41.24638807001773 x[2,4] + 50.73636427830128 x[2,5]
   + 31.92994687294717 x[2,6] + 13.44764009890247 x[2,7]
   + 86.21212749855752 x[3,0] + 69.45785936236189 x[3,1]
   + 21.07739670077395 x[3,2] + 74.34276174668177 x[3,3]
   + 55.81668948339924 x[3,4] + 66.053906382227 x[3,5]
   + 80.92223304926425 x[3,6] + 21.9096774203894 x[3,7]
   + 88.68442651627572 x[4,0] + 42.76478943463563 x[4,1]
   + 50.20611169249061 x[4,2] + 89.70321028909962 x[4,3]
   + 42.8447395971512 x[4,4] + 34.16093321483171 x[4,5]
   + 49.61410806898802 x[4,6] + 63.37679827970832 x[4,7]
Subject To
 task_0_shift_0: x[0,0] >= 1
 task_0_shift_1: x[0,1] >= 1
 task_0_shift_2: x[0,2] >= 1
 task_0_shift_3: x[0,3] >= 1
 task_0_shift_4: x[0,4] >= 1
 task_0_shift_5: x[0,5] >= 1
 task_0_shift_6: x[0,6] >= 1
 task_0_shift_7: x[0,7] >= 1
 task_1_shift_0: x[1,0] >= 1
 task_1_shift_1: x[1,1] >= 1
 task_1_shift_2: x[1,2] >= 1
 task_1_shift_3: x[1,3] >= 1
 task_1_shift_4: x[1,4] >= 1
 task_1_shift_5: x[1,5] >= 1
 task_1_shift_6: x[1,6] >= 1
 task_1_shift_7: x[1,7] >= 1
 task_2_shift_0: x[2,0] >= 1
 task_2_shift_1: x[2,1] >= 1
 task_2_shift_2: x[2,2] >= 1
 task_2_shift_3: x[2,3] >= 1
 task_2_shift_4: x[2,4] >= 1
 task_2_shift_5: x[2,5] >= 1
 task_2_shift_6: x[2,6] >= 1
 task_2_shift_7: x[2,7] >= 1
 task_3_shift_0: x[3,0] >= 1
 task_3_shift_1: x[3,1] >= 1
 task_3_shift_2: x[3,2] >= 1
 task_3_shift_3: x[3,3] >= 1
 task_3_shift_4: x[3,4] >= 1
 task_3_shift_5: x[3,5] >= 1
 task_3_shift_6: x[3,6] >= 1
 task_3_shift_7: x[3,7] >= 1
 task_4_shift_0: x[4,0] >= 1
 task_4_shift_1: x[4,1] >= 1
 task_4_shift_2: x[4,2] >= 1
 task_4_shift_3: x[4,3] >= 1
 task_4_shift_4: x[4,4] >= 1
 task_4_shift_5: x[4,5] >= 1
 task_4_shift_6: x[4,6] >= 1
 task_4_shift_7: x[4,7] >= 1
 shift_0_availability: x[0,0] + x[1,0] + x[2,0] + x[3,0] + x[4,0] <= 100
 shift_1_availability: x[0,1] + x[1,1] + x[2,1] + x[3,1] + x[4,1] <= 100
 shift_2_availability: x[0,2] + x[1,2] + x[2,2] + x[3,2] + x[4,2] <= 100
 shift_3_availability: x[0,3] + x[1,3] + x[2,3] + x[3,3] + x[4,3] <= 100
 shift_4_availability: x[0,4] + x[1,4] + x[2,4] + x[3,4] + x[4,4] <= 100
 shift_5_availability: x[0,5] + x[1,5] + x[2,5] + x[3,5] + x[4,5] <= 100
 shift_6_availability: x[0,6] + x[1,6] + x[2,6] + x[3,6] + x[4,6] <= 100
 shift_7_availability: x[0,7] + x[1,7] + x[2,7] + x[3,7] + x[4,7] <= 100
 break_time_0_0: 3.787173397879143 x[0,0] - 2.103189075671615 x[0,1] <= 0
 break_time_1_0: 3.787173397879143 x[1,0] - 2.103189075671615 x[1,1] <= 0
 break_time_2_0: 3.787173397879143 x[2,0] - 2.103189075671615 x[2,1] <= 0
 break_time_3_0: 3.787173397879143 x[3,0] - 2.103189075671615 x[3,1] <= 0
 break_time_4_0: 3.787173397879143 x[4,0] - 2.103189075671615 x[4,1] <= 0
 break_time_0_1: 2.103189075671615 x[0,1] - 5.908082469525388 x[0,2] <= 0
 break_time_1_1: 2.103189075671615 x[1,1] - 5.908082469525388 x[1,2] <= 0
 break_time_2_1: 2.103189075671615 x[2,1] - 5.908082469525388 x[2,2] <= 0
 break_time_3_1: 2.103189075671615 x[3,1] - 5.908082469525388 x[3,2] <= 0
 break_time_4_1: 2.103189075671615 x[4,1] - 5.908082469525388 x[4,2] <= 0
 break_time_0_2: 5.908082469525388 x[0,2] - 6.694246212649583 x[0,3] <= 0
 break_time_1_2: 5.908082469525388 x[1,2] - 6.694246212649583 x[1,3] <= 0
 break_time_2_2: 5.908082469525388 x[2,2] - 6.694246212649583 x[2,3] <= 0
 break_time_3_2: 5.908082469525388 x[3,2] - 6.694246212649583 x[3,3] <= 0
 break_time_4_2: 5.908082469525388 x[4,2] - 6.694246212649583 x[4,3] <= 0
 break_time_0_3: 6.694246212649583 x[0,3] - 3.409949826126819 x[0,4] <= 0
 break_time_1_3: 6.694246212649583 x[1,3] - 3.409949826126819 x[1,4] <= 0
 break_time_2_3: 6.694246212649583 x[2,3] - 3.409949826126819 x[2,4] <= 0
 break_time_3_3: 6.694246212649583 x[3,3] - 3.409949826126819 x[3,4] <= 0
 break_time_4_3: 6.694246212649583 x[4,3] - 3.409949826126819 x[4,4] <= 0
 break_time_0_4: 3.409949826126819 x[0,4] - 2.027098240457238 x[0,5] <= 0
 break_time_1_4: 3.409949826126819 x[1,4] - 2.027098240457238 x[1,5] <= 0
 break_time_2_4: 3.409949826126819 x[2,4] - 2.027098240457238 x[2,5] <= 0
 break_time_3_4: 3.409949826126819 x[3,4] - 2.027098240457238 x[3,5] <= 0
 break_time_4_4: 3.409949826126819 x[4,4] - 2.027098240457238 x[4,5] <= 0
 break_time_0_5: 2.027098240457238 x[0,5] - 2.780883671113379 x[0,6] <= 0
 break_time_1_5: 2.027098240457238 x[1,5] - 2.780883671113379 x[1,6] <= 0
 break_time_2_5: 2.027098240457238 x[2,5] - 2.780883671113379 x[2,6] <= 0
 break_time_3_5: 2.027098240457238 x[3,5] - 2.780883671113379 x[3,6] <= 0
 break_time_4_5: 2.027098240457238 x[4,5] - 2.780883671113379 x[4,6] <= 0
 break_time_0_6: 2.780883671113379 x[0,6] - 3.040492866855393 x[0,7] <= 0
 break_time_1_6: 2.780883671113379 x[1,6] - 3.040492866855393 x[1,7] <= 0
 break_time_2_6: 2.780883671113379 x[2,6] - 3.040492866855393 x[2,7] <= 0
 break_time_3_6: 2.780883671113379 x[3,6] - 3.040492866855393 x[3,7] <= 0
 break_time_4_6: 2.780883671113379 x[4,6] - 3.040492866855393 x[4,7] <= 0
Bounds
End
